<instance format="XCSP3" type="COP">
  <variables>
    <array id="x" size="[50]"> 0 1 </array>
  </variables>
  <constraints>
    <sum>
      <list> x[] </list>
      <coeffs> 27 21 45 17 43 44 5 16 13 9 14 46 1 22 49 9 8 4 14 28 48 8 20 21 19 38 21 36 25 31 15 4 22 12 39 5 13 29 48 46 46 48 12 50 23 26 40 17 43 8 </coeffs>
      <condition> (le,200) </condition>
    </sum>
  </constraints>
  <objectives>
    <maximize type="sum">
      <list> x[] </list>
      <coeffs> 9 44 83 26 74 86 6 49 29 91 8 49 3 8 44 22 53 77 52 19 51 30 50 13 36 51 31 69 53 87 31 74 69 89 3 78 38 52 34 49 63 32 67 53 18 34 48 38 65 56 </coeffs>
    </maximize>
  </objectives>
</instance>
